NAME : X-n367-k17
COMMENT : "Generated by Uchoa, Pecin, Pessoa, Poggi, Subramanian, and Vidal (2013)"
TYPE : CVRP
DIMENSION : 367
EDGE_WEIGHT_TYPE : EUC_2D
CAPACITY : 218
NODE_COORD_SECTION
1 927 318
2 319 475
3 471 281
4 894 615
5 712 832
6 728 813
7 360 217
8 446 264
9 952 650
10 558 224
11 460 397
12 464 342
13 733 921
14 324 316
15 333 497
16 826 821
17 257 385
18 385 244
19 523 249
20 559 370
21 665 866
22 310 583
23 744 792
24 428 638
25 759 804
26 359 515
27 392 213
28 583 380
29 786 400
30 516 833
31 823 692
32 480 330
33 870 690
34 311 76
35 157 434
36 340 558
37 499 905
38 893 667
39 665 781
40 328 499
41 712 744
42 949 498
43 463 266
44 275 564
45 456 323
46 748 727
47 860 607
48 821 554
49 245 542
50 462 420
51 859 662
52 308 399
53 427 246
54 279 414
55 543 841
56 243 333
57 406 498
58 347 509
59 460 593
60 244 536
61 650 703
62 732 115
63 234 661
64 808 720
65 423 216
66 144 390
67 772 633
68 917 645
69 509 345
70 286 449
71 380 488
72 478 333
73 465 310
74 666 858
75 334 369
76 708 815
77 767 610
78 472 326
79 481 449
80 476 215
81 559 265
82 477 79
83 786 646
84 503 255
85 406 226
86 627 709
87 980 570
88 859 611
89 931 648
90 281 315
91 954 665
92 443 295
93 497 359
94 247 542
95 311 468
96 901 603
97 801 847
98 257 131
99 346 637
100 767 855
101 604 305
102 436 206
103 277 345
104 428 257
105 405 530
106 892 802
107 341 663
108 856 527
109 539 861
110 359 298
111 775 869
112 875 642
113 610 772
114 867 658
115 677 832
116 340 456
117 322 444
118 623 825
119 316 483
120 941 597
121 886 768
122 505 255
123 554 806
124 309 502
125 953 659
126 675 828
127 946 627
128 242 560
129 498 334
130 844 511
131 811 691
132 468 522
133 454 510
134 675 733
135 186 347
136 348 474
137 605 756
138 487 362
139 835 517
140 507 409
141 378 458
142 368 319
143 810 928
144 572 844
145 445 255
146 412 244
147 815 948
148 328 509
149 665 841
150 295 534
151 859 585
152 730 846
153 380 437
154 786 719
155 437 458
156 371 276
157 876 594
158 448 298
159 510 236
160 573 230
161 492 203
162 837 903
163 909 630
164 704 257
165 643 809
166 942 583
167 944 623
168 440 448
169 411 551
170 721 584
171 523 195
172 370 474
173 730 809
174 520 525
175 498 349
176 667 782
177 244 370
178 365 509
179 758 838
180 323 519
181 378 315
182 402 522
183 986 718
184 419 216
185 340 467
186 664 691
187 887 519
188 487 341
189 798 633
190 432 178
191 538 215
192 619 734
193 897 626
194 653 723
195 999 652
196 424 473
197 842 770
198 504 345
199 830 617
200 986 609
201 742 857
202 352 461
203 602 875
204 980 770
205 524 367
206 918 764
207 654 754
208 482 274
209 861 603
210 344 184
211 832 573
212 924 690
213 794 662
214 258 663
215 575 132
216 273 535
217 871 612
218 522 291
219 650 261
220 517 137
221 443 292
222 631 960
223 950 648
224 514 140
225 212 601
226 698 735
227 510 223
228 322 521
229 806 829
230 243 269
231 527 416
232 535 411
233 917 576
234 618 292
235 504 296
236 574 897
237 368 600
238 733 712
239 314 438
240 362 479
241 874 652
242 756 693
243 519 166
244 418 381
245 841 801
246 593 974
247 410 515
248 434 478
249 501 249
250 896 647
251 819 806
252 311 561
253 363 98
254 275 491
255 849 471
256 563 297
257 961 626
258 588 700
259 705 795
260 948 634
261 283 493
262 865 664
263 856 622
264 223 459
265 307 497
266 363 509
267 655 782
268 636 386
269 703 883
270 782 900
271 186 508
272 436 192
273 398 512
274 449 668
275 253 148
276 112 573
277 250 532
278 722 761
279 375 393
280 415 416
281 234 81
282 511 473
283 940 754
284 382 449
285 267 459
286 926 677
287 946 631
288 962 364
289 886 613
290 794 839
291 137 499
292 594 954
293 497 399
294 869 621
295 857 586
296 971 559
297 521 273
298 793 806
299 461 276
300 912 910
301 457 265
302 325 456
303 312 305
304 991 645
305 360 430
306 672 935
307 227 328
308 869 620
309 316 455
310 617 725
311 395 501
312 406 223
313 879 592
314 692 448
315 534 348
316 641 823
317 644 822
318 323 492
319 405 715
320 331 451
321 902 505
322 900 608
323 939 553
324 681 748
325 497 320
326 289 412
327 466 263
328 662 812
329 256 499
330 748 888
331 352 624
332 474 238
333 208 455
334 922 673
335 470 473
336 595 787
337 869 610
338 80 531
339 826 819
340 691 935
341 759 863
342 331 340
343 405 263
344 640 751
345 246 487
346 949 593
347 770 429
348 876 561
349 448 274
350 786 866
351 728 801
352 453 176
353 356 248
354 531 283
355 885 599
356 994 539
357 781 595
358 688 856
359 448 393
360 302 417
361 298 550
362 663 798
363 564 286
364 762 732
365 437 272
366 301 337
367 718 866
PICKUP_AND_DELIVERY_SECTION
1 0 0 1000000000 0 0 0
2 0 0 1000000000 0 0 67
3 0 0 1000000000 0 0 87
4 0 0 1000000000 0 0 73
5 0 0 1000000000 0 0 59
6 0 0 1000000000 0 0 88
7 0 0 1000000000 0 0 58
8 0 0 1000000000 0 0 53
9 0 0 1000000000 0 0 53
10 0 0 1000000000 0 0 97
11 0 0 1000000000 0 59 0
12 0 0 1000000000 0 0 52
13 0 0 1000000000 0 0 83
14 0 0 1000000000 0 0 88
15 0 0 1000000000 0 0 83
16 0 0 1000000000 0 0 95
17 0 0 1000000000 0 0 95
18 0 0 1000000000 0 0 93
19 0 0 1000000000 0 0 63
20 0 0 1000000000 0 0 50
21 0 0 1000000000 0 94 0
22 0 0 1000000000 0 0 56
23 0 0 1000000000 0 0 57
24 0 0 1000000000 0 0 69
25 0 0 1000000000 0 0 68
26 0 0 1000000000 0 0 3
27 0 0 1000000000 0 0 3
28 0 0 1000000000 0 0 1
29 0 0 1000000000 0 0 3
30 0 0 1000000000 0 0 2
31 0 0 1000000000 0 1 0
32 0 0 1000000000 0 0 4
33 0 0 1000000000 0 0 10
34 0 0 1000000000 0 0 6
35 0 0 1000000000 0 0 9
36 0 0 1000000000 0 0 1
37 0 0 1000000000 0 0 3
38 0 0 1000000000 0 0 4
39 0 0 1000000000 0 0 2
40 0 0 1000000000 0 0 10
41 0 0 1000000000 0 5 0
42 0 0 1000000000 0 0 4
43 0 0 1000000000 0 0 6
44 0 0 1000000000 0 0 3
45 0 0 1000000000 0 0 10
46 0 0 1000000000 0 0 5
47 0 0 1000000000 0 0 2
48 0 0 1000000000 0 0 5
49 0 0 1000000000 0 0 9
50 0 0 1000000000 0 0 6
51 0 0 1000000000 0 8 0
52 0 0 1000000000 0 0 2
53 0 0 1000000000 0 0 3
54 0 0 1000000000 0 0 6
55 0 0 1000000000 0 0 5
56 0 0 1000000000 0 0 5
57 0 0 1000000000 0 0 3
58 0 0 1000000000 0 0 3
59 0 0 1000000000 0 0 6
60 0 0 1000000000 0 0 5
61 0 0 1000000000 0 8 0
62 0 0 1000000000 0 0 9
63 0 0 1000000000 0 0 4
64 0 0 1000000000 0 0 8
65 0 0 1000000000 0 0 4
66 0 0 1000000000 0 0 10
67 0 0 1000000000 0 0 5
68 0 0 1000000000 0 0 1
69 0 0 1000000000 0 0 9
70 0 0 1000000000 0 0 9
71 0 0 1000000000 0 6 0
72 0 0 1000000000 0 0 6
73 0 0 1000000000 0 0 7
74 0 0 1000000000 0 0 4
75 0 0 1000000000 0 0 5
76 0 0 1000000000 0 0 3
77 0 0 1000000000 0 0 5
78 0 0 1000000000 0 0 5
79 0 0 1000000000 0 0 1
80 0 0 1000000000 0 0 10
81 0 0 1000000000 0 4 0
82 0 0 1000000000 0 0 2
83 0 0 1000000000 0 0 5
84 0 0 1000000000 0 0 5
85 0 0 1000000000 0 0 8
86 0 0 1000000000 0 0 6
87 0 0 1000000000 0 0 10
88 0 0 1000000000 0 0 8
89 0 0 1000000000 0 0 7
90 0 0 1000000000 0 0 6
91 0 0 1000000000 0 8 0
92 0 0 1000000000 0 0 4
93 0 0 1000000000 0 0 2
94 0 0 1000000000 0 0 4
95 0 0 1000000000 0 0 7
96 0 0 1000000000 0 0 8
97 0 0 1000000000 0 0 10
98 0 0 1000000000 0 0 1
99 0 0 1000000000 0 0 1
100 0 0 1000000000 0 0 9
101 0 0 1000000000 0 1 0
102 0 0 1000000000 0 0 7
103 0 0 1000000000 0 0 9
104 0 0 1000000000 0 0 10
105 0 0 1000000000 0 0 1
106 0 0 1000000000 0 0 2
107 0 0 1000000000 0 0 10
108 0 0 1000000000 0 0 3
109 0 0 1000000000 0 0 6
110 0 0 1000000000 0 0 9
111 0 0 1000000000 0 5 0
112 0 0 1000000000 0 0 8
113 0 0 1000000000 0 0 9
114 0 0 1000000000 0 0 9
115 0 0 1000000000 0 0 7
116 0 0 1000000000 0 0 1
117 0 0 1000000000 0 0 6
118 0 0 1000000000 0 0 4
119 0 0 1000000000 0 0 8
120 0 0 1000000000 0 0 7
121 0 0 1000000000 0 8 0
122 0 0 1000000000 0 0 3
123 0 0 1000000000 0 0 4
124 0 0 1000000000 0 0 9
125 0 0 1000000000 0 0 7
126 0 0 1000000000 0 0 1
127 0 0 1000000000 0 0 1
128 0 0 1000000000 0 0 6
129 0 0 1000000000 0 0 1
130 0 0 1000000000 0 0 9
131 0 0 1000000000 0 7 0
132 0 0 1000000000 0 0 7
133 0 0 1000000000 0 0 3
134 0 0 1000000000 0 0 8
135 0 0 1000000000 0 0 1
136 0 0 1000000000 0 0 6
137 0 0 1000000000 0 0 7
138 0 0 1000000000 0 0 1
139 0 0 1000000000 0 0 4
140 0 0 1000000000 0 0 7
141 0 0 1000000000 0 4 0
142 0 0 1000000000 0 0 2
143 0 0 1000000000 0 0 8
144 0 0 1000000000 0 0 10
145 0 0 1000000000 0 0 6
146 0 0 1000000000 0 0 1
147 0 0 1000000000 0 0 6
148 0 0 1000000000 0 0 4
149 0 0 1000000000 0 0 10
150 0 0 1000000000 0 0 2
151 0 0 1000000000 0 3 0
152 0 0 1000000000 0 0 3
153 0 0 1000000000 0 0 9
154 0 0 1000000000 0 0 8
155 0 0 1000000000 0 0 5
156 0 0 1000000000 0 0 4
157 0 0 1000000000 0 0 5
158 0 0 1000000000 0 0 2
159 0 0 1000000000 0 0 10
160 0 0 1000000000 0 0 5
161 0 0 1000000000 0 1 0
162 0 0 1000000000 0 0 7
163 0 0 1000000000 0 0 7
164 0 0 1000000000 0 0 7
165 0 0 1000000000 0 0 6
166 0 0 1000000000 0 0 7
167 0 0 1000000000 0 0 7
168 0 0 1000000000 0 0 6
169 0 0 1000000000 0 0 10
170 0 0 1000000000 0 0 4
171 0 0 1000000000 0 10 0
172 0 0 1000000000 0 0 6
173 0 0 1000000000 0 0 1
174 0 0 1000000000 0 0 4
175 0 0 1000000000 0 0 2
176 0 0 1000000000 0 0 9
177 0 0 1000000000 0 0 6
178 0 0 1000000000 0 0 9
179 0 0 1000000000 0 0 5
180 0 0 1000000000 0 0 5
181 0 0 1000000000 0 2 0
182 0 0 1000000000 0 0 4
183 0 0 1000000000 0 0 7
184 0 0 1000000000 0 0 10
185 0 0 1000000000 0 0 1
186 0 0 1000000000 0 0 2
187 0 0 1000000000 0 0 4
188 0 0 1000000000 0 0 10
189 0 0 1000000000 0 0 1
190 0 0 1000000000 0 0 9
191 0 0 1000000000 0 6 0
192 0 0 1000000000 0 0 8
193 0 0 1000000000 0 0 1
194 0 0 1000000000 0 0 8
195 0 0 1000000000 0 0 3
196 0 0 1000000000 0 0 3
197 0 0 1000000000 0 0 4
198 0 0 1000000000 0 0 5
199 0 0 1000000000 0 0 7
200 0 0 1000000000 0 0 2
201 0 0 1000000000 0 1 0
202 0 0 1000000000 0 0 3
203 0 0 1000000000 0 0 10
204 0 0 1000000000 0 0 3
205 0 0 1000000000 0 0 2
206 0 0 1000000000 0 0 9
207 0 0 1000000000 0 0 8
208 0 0 1000000000 0 0 8
209 0 0 1000000000 0 0 3
210 0 0 1000000000 0 0 6
211 0 0 1000000000 0 6 0
212 0 0 1000000000 0 0 7
213 0 0 1000000000 0 0 4
214 0 0 1000000000 0 0 2
215 0 0 1000000000 0 0 2
216 0 0 1000000000 0 0 9
217 0 0 1000000000 0 0 9
218 0 0 1000000000 0 0 9
219 0 0 1000000000 0 0 3
220 0 0 1000000000 0 0 1
221 0 0 1000000000 0 4 0
222 0 0 1000000000 0 0 5
223 0 0 1000000000 0 0 2
224 0 0 1000000000 0 0 6
225 0 0 1000000000 0 0 3
226 0 0 1000000000 0 0 5
227 0 0 1000000000 0 0 8
228 0 0 1000000000 0 0 5
229 0 0 1000000000 0 0 9
230 0 0 1000000000 0 0 5
231 0 0 1000000000 0 5 0
232 0 0 1000000000 0 0 8
233 0 0 1000000000 0 0 3
234 0 0 1000000000 0 0 1
235 0 0 1000000000 0 0 7
236 0 0 1000000000 0 0 1
237 0 0 1000000000 0 0 7
238 0 0 1000000000 0 0 9
239 0 0 1000000000 0 0 1
240 0 0 1000000000 0 0 9
241 0 0 1000000000 0 9 0
242 0 0 1000000000 0 0 6
243 0 0 1000000000 0 0 2
244 0 0 1000000000 0 0 3
245 0 0 1000000000 0 0 9
246 0 0 1000000000 0 0 7
247 0 0 1000000000 0 0 1
248 0 0 1000000000 0 0 4
249 0 0 1000000000 0 0 4
250 0 0 1000000000 0 0 10
251 0 0 1000000000 0 6 0
252 0 0 1000000000 0 0 9
253 0 0 1000000000 0 0 9
254 0 0 1000000000 0 0 3
255 0 0 1000000000 0 0 10
256 0 0 1000000000 0 0 2
257 0 0 1000000000 0 0 1
258 0 0 1000000000 0 0 10
259 0 0 1000000000 0 0 4
260 0 0 1000000000 0 0 8
261 0 0 1000000000 0 4 0
262 0 0 1000000000 0 0 10
263 0 0 1000000000 0 0 4
264 0 0 1000000000 0 0 5
265 0 0 1000000000 0 0 9
266 0 0 1000000000 0 0 9
267 0 0 1000000000 0 0 4
268 0 0 1000000000 0 0 2
269 0 0 1000000000 0 0 10
270 0 0 1000000000 0 0 7
271 0 0 1000000000 0 2 0
272 0 0 1000000000 0 0 4
273 0 0 1000000000 0 0 7
274 0 0 1000000000 0 0 9
275 0 0 1000000000 0 0 6
276 0 0 1000000000 0 0 6
277 0 0 1000000000 0 0 1
278 0 0 1000000000 0 0 4
279 0 0 1000000000 0 0 7
280 0 0 1000000000 0 0 6
281 0 0 1000000000 0 8 0
282 0 0 1000000000 0 0 9
283 0 0 1000000000 0 0 4
284 0 0 1000000000 0 0 6
285 0 0 1000000000 0 0 8
286 0 0 1000000000 0 0 4
287 0 0 1000000000 0 0 2
288 0 0 1000000000 0 0 10
289 0 0 1000000000 0 0 7
290 0 0 1000000000 0 0 5
291 0 0 1000000000 0 3 0
292 0 0 1000000000 0 0 3
293 0 0 1000000000 0 0 10
294 0 0 1000000000 0 0 1
295 0 0 1000000000 0 0 4
296 0 0 1000000000 0 0 6
297 0 0 1000000000 0 0 10
298 0 0 1000000000 0 0 1
299 0 0 1000000000 0 0 1
300 0 0 1000000000 0 0 8
301 0 0 1000000000 0 3 0
302 0 0 1000000000 0 0 5
303 0 0 1000000000 0 0 4
304 0 0 1000000000 0 0 7
305 0 0 1000000000 0 0 9
306 0 0 1000000000 0 0 9
307 0 0 1000000000 0 0 9
308 0 0 1000000000 0 0 7
309 0 0 1000000000 0 0 10
310 0 0 1000000000 0 0 4
311 0 0 1000000000 0 1 0
312 0 0 1000000000 0 0 9
313 0 0 1000000000 0 0 5
314 0 0 1000000000 0 0 8
315 0 0 1000000000 0 0 10
316 0 0 1000000000 0 0 5
317 0 0 1000000000 0 0 3
318 0 0 1000000000 0 0 1
319 0 0 1000000000 0 0 1
320 0 0 1000000000 0 0 1
321 0 0 1000000000 0 3 0
322 0 0 1000000000 0 0 2
323 0 0 1000000000 0 0 9
324 0 0 1000000000 0 0 3
325 0 0 1000000000 0 0 10
326 0 0 1000000000 0 0 2
327 0 0 1000000000 0 0 1
328 0 0 1000000000 0 0 3
329 0 0 1000000000 0 0 10
330 0 0 1000000000 0 0 9
331 0 0 1000000000 0 4 0
332 0 0 1000000000 0 0 3
333 0 0 1000000000 0 0 9
334 0 0 1000000000 0 0 5
335 0 0 1000000000 0 0 9
336 0 0 1000000000 0 0 9
337 0 0 1000000000 0 0 7
338 0 0 1000000000 0 0 8
339 0 0 1000000000 0 0 5
340 0 0 1000000000 0 0 9
341 0 0 1000000000 0 10 0
342 0 0 1000000000 0 0 9
343 0 0 1000000000 0 0 7
344 0 0 1000000000 0 0 4
345 0 0 1000000000 0 0 6
346 0 0 1000000000 0 0 8
347 0 0 1000000000 0 0 6
348 0 0 1000000000 0 0 8
349 0 0 1000000000 0 0 7
350 0 0 1000000000 0 0 8
351 0 0 1000000000 0 10 0
352 0 0 1000000000 0 0 8
353 0 0 1000000000 0 0 2
354 0 0 1000000000 0 0 6
355 0 0 1000000000 0 0 3
356 0 0 1000000000 0 0 10
357 0 0 1000000000 0 0 8
358 0 0 1000000000 0 0 5
359 0 0 1000000000 0 0 4
360 0 0 1000000000 0 0 9
361 0 0 1000000000 0 1 0
362 0 0 1000000000 0 0 6
363 0 0 1000000000 0 0 2
364 0 0 1000000000 0 0 8
365 0 0 1000000000 0 0 9
366 0 0 1000000000 0 0 10
367 0 0 1000000000 0 0 9
